47
3 36 12 80 
3 3 90 119 
3 40 120 112 
2 69 1 
2 101 37 
3 8 55 4 
3 6 42 81 
2 105 64 
3 21 108 41 
3 38 85 94 
3 16 104 9 
3 115 10 107 
3 48 5 109 
3 24 89 100 
3 45 68 46 
2 19 47 
3 63 99 65 
3 11 43 67 
3 32 113 30 
2 74 84 
3 98 91 70 
3 78 57 29 
3 66 88 49 
2 83 54 
3 77 117 111 
2 62 50 
3 39 58 72 
3 20 60 44 
3 2 25 56 
2 28 31 
2 51 86 
2 95 79 
2 75 92 
2 118 15 
2 53 97 
3 13 114 87 
2 17 106 
3 14 103 96 
3 26 76 110 
2 23 102 
1 27 
3 93 59 52 
2 35 61 
3 73 7 33 
2 34 71 
2 82 18 
2 22 116 
